
  22    4
  10   10   10   10

   0   0   0   0   0   4 2 3 4 5 
   1  10  10  10  10   4 13 8 7 6 
   8  10  10  10  10   4 13 10 9 8 
   8  10  10  10  10   3 14 13 6 
   7  10  10  10  10   5 21 20 12 11 10 
   6  10  10  10  10   4 21 20 12 11 
   8  10  10  10  10   4 20 18 14 11 
   1  10  10  10  10   3 18 14 11 
  10  10  10  10  10   4 20 18 16 15 
   4  10  10  10  10   3 19 16 14 
   7  10  10  10  10   2 19 15 
   5  10  10  10  10   2 18 16 
   3  10  10  10  10   2 21 15 
   2  10  10  10  10   1 15 
   6  10  10  10  10   1 17 
   5  10  10  10  10   1 17 
   8  10  10  10  10   1 22
   3  10  10  10  10   1 22
   3  10  10  10  10   1 22
   5  10  10  10  10   1 22
   4  10  10  10  10   1 22
   0   0   0   0   0   0 
